Minimize
	value: tt

Subject to
tt + 2000 s_1_1 > 0
tt - t_1_1 - 2000.000000 s_1_1 > -1989.747100
tt + 2000 s_2_1 > 0
tt - t_2_1 - 2000.000000 s_2_1 > -1997.289125
tt + 2000 s_1_2 > 0
tt - t_1_2 - 2000.000000 s_1_2 > -1980.441400
tt + 2000 s_2_2 > 0
tt - t_2_2 - 2000.000000 s_2_2 > -1996.603100
tt + 2000 s_1_3 > 0
tt - t_1_3 - 2000.000000 s_1_3 > -1923.850300
tt + 2000 s_2_3 > 0
tt - t_2_3 - 2000.000000 s_2_3 > -1984.399931
tt + 2000 s_1_4 > 0
tt - t_1_4 - 2000.000000 s_1_4 > -1954.631000
tt + 2000 s_2_4 > 0
tt - t_2_4 - 2000.000000 s_2_4 > -1990.066167
tt + 2000 s_1_5 > 0
tt - t_1_5 - 2048.000000 s_1_5 + 48.000000 s_1_4 > -1999.552222
tt + 2000 s_2_5 > 0
tt - t_2_5 - 2057.600000 s_2_5 + 57.600000 s_2_4 > -1998.986571
s_1_1 + s_2_1  = 1
s_1_2 + s_2_2  = 1
s_1_3 + s_2_3  = 1
s_1_4 + s_2_4  = 1
s_1_5 + s_2_5  = 1
t_1_1 - t_1_2 + 2000.000000 u_1_1_2 > 19.558600
t_1_2 - t_1_1 - 2000.000000 u_1_1_2 > -1989.747100
t_2_1 - t_2_2 + 2000.000000 u_2_1_2 > 3.396900
t_2_2 - t_2_1 - 2000.000000 u_2_1_2 > -1997.289125
t_1_1 - t_1_3 + 2000.000000 u_1_1_3 > 76.149700
t_1_3 - t_1_1 - 2000.000000 u_1_1_3 > -1989.747100
t_2_1 - t_2_3 + 2000.000000 u_2_1_3 > 15.600069
t_2_3 - t_2_1 - 2000.000000 u_2_1_3 > -1997.289125
t_1_1 - t_1_4 + 2000.000000 u_1_1_4 > 45.369000
t_1_4 - t_1_1 - 2000.000000 u_1_1_4 > -1989.747100
t_2_1 - t_2_4 + 2000.000000 u_2_1_4 > 9.933833
t_2_4 - t_2_1 - 2000.000000 u_2_1_4 > -1997.289125
t_1_5 - t_1_1 - 2000.000000 s_1_1 > -1986.106230
t_1_5 - t_2_1 - 2000.000000 s_2_1 > -1990.503137
t_2_5 - t_1_1 - 2000.000000 s_1_1 > -1986.106230
t_2_5 - t_2_1 - 2000.000000 s_2_1 > -1990.503137
t_1_2 - t_1_1 + 2000.000000 u_1_2_1 > 10.252900
t_1_1 - t_1_2 - 2000.000000 u_1_2_1 > -1980.441400
t_2_2 - t_2_1 + 2000.000000 u_2_2_1 > 2.710875
t_2_1 - t_2_2 - 2000.000000 u_2_2_1 > -1996.603100
t_1_2 - t_1_3 + 2000.000000 u_1_2_3 > 76.149700
t_1_3 - t_1_2 - 2000.000000 u_1_2_3 > -1980.441400
t_2_2 - t_2_3 + 2000.000000 u_2_2_3 > 15.600069
t_2_3 - t_2_2 - 2000.000000 u_2_2_3 > -1996.603100
t_1_2 - t_1_4 + 2000.000000 u_1_2_4 > 45.369000
t_1_4 - t_1_2 - 2000.000000 u_1_2_4 > -1980.441400
t_2_2 - t_2_4 + 2000.000000 u_2_2_4 > 9.933833
t_2_4 - t_2_2 - 2000.000000 u_2_2_4 > -1996.603100
t_1_5 - t_1_2 - 2000.000000 s_1_2 > -1976.800530
t_1_5 - t_2_2 - 2000.000000 s_2_2 > -1989.817112
t_2_5 - t_1_2 - 2000.000000 s_1_2 > -1976.800530
t_2_5 - t_2_2 - 2000.000000 s_2_2 > -1989.817112
t_1_3 - t_1_1 + 2000.000000 u_1_3_1 > 10.252900
t_1_1 - t_1_3 - 2000.000000 u_1_3_1 > -1923.850300
t_2_3 - t_2_1 + 2000.000000 u_2_3_1 > 2.710875
t_2_1 - t_2_3 - 2000.000000 u_2_3_1 > -1984.399931
t_1_3 - t_1_2 + 2000.000000 u_1_3_2 > 19.558600
t_1_2 - t_1_3 - 2000.000000 u_1_3_2 > -1923.850300
t_2_3 - t_2_2 + 2000.000000 u_2_3_2 > 3.396900
t_2_2 - t_2_3 - 2000.000000 u_2_3_2 > -1984.399931
t_1_3 - t_1_4 + 2000.000000 u_1_3_4 > 45.369000
t_1_4 - t_1_3 - 2000.000000 u_1_3_4 > -1923.850300
t_2_3 - t_2_4 + 2000.000000 u_2_3_4 > 9.933833
t_2_4 - t_2_3 - 2000.000000 u_2_3_4 > -1984.399931
t_1_5 - t_1_3 - 2000.000000 s_1_3 > -1920.209430
t_1_5 - t_2_3 - 2000.000000 s_2_3 > -1977.613943
t_2_5 - t_1_3 - 2000.000000 s_1_3 > -1920.209430
t_2_5 - t_2_3 - 2000.000000 s_2_3 > -1977.613943
t_1_4 - t_1_1 + 2000.000000 u_1_4_1 > 10.252900
t_1_1 - t_1_4 - 2000.000000 u_1_4_1 > -1954.631000
t_2_4 - t_2_1 + 2000.000000 u_2_4_1 > 2.710875
t_2_1 - t_2_4 - 2000.000000 u_2_4_1 > -1990.066167
t_1_4 - t_1_2 + 2000.000000 u_1_4_2 > 19.558600
t_1_2 - t_1_4 - 2000.000000 u_1_4_2 > -1954.631000
t_2_4 - t_2_2 + 2000.000000 u_2_4_2 > 3.396900
t_2_2 - t_2_4 - 2000.000000 u_2_4_2 > -1990.066167
t_1_4 - t_1_3 + 2000.000000 u_1_4_3 > 76.149700
t_1_3 - t_1_4 - 2000.000000 u_1_4_3 > -1954.631000
t_2_4 - t_2_3 + 2000.000000 u_2_4_3 > 15.600069
t_2_3 - t_2_4 - 2000.000000 u_2_4_3 > -1990.066167
t_1_5 - t_1_4 - 2000.000000 s_1_4 > -1950.990130
t_1_5 - t_2_4 - 2000.000000 s_2_4 > -1983.280179
t_2_5 - t_1_4 - 2000.000000 s_1_4 > -1950.990130
t_2_5 - t_2_4 - 2000.000000 s_2_4 > -1983.280179
t_1_5 - t_1_1 - 2000.000000 s_1_1 > -1986.106230
t_1_5 - t_2_1 - 2000.000000 s_2_1 > -1990.503137
t_2_5 - t_1_1 - 2000.000000 s_1_1 > -1986.106230
t_2_5 - t_2_1 - 2000.000000 s_2_1 > -1990.503137
t_1_5 - t_1_2 - 2000.000000 s_1_2 > -1976.800530
t_1_5 - t_2_2 - 2000.000000 s_2_2 > -1989.817112
t_2_5 - t_1_2 - 2000.000000 s_1_2 > -1976.800530
t_2_5 - t_2_2 - 2000.000000 s_2_2 > -1989.817112
t_1_5 - t_1_3 - 2000.000000 s_1_3 > -1920.209430
t_1_5 - t_2_3 - 2000.000000 s_2_3 > -1977.613943
t_2_5 - t_1_3 - 2000.000000 s_1_3 > -1920.209430
t_2_5 - t_2_3 - 2000.000000 s_2_3 > -1977.613943
t_1_5 - t_1_4 - 2000.000000 s_1_4 > -1950.990130
t_1_5 - t_2_4 - 2000.000000 s_2_4 > -1983.280179
t_2_5 - t_1_4 - 2000.000000 s_1_4 > -1950.990130
t_2_5 - t_2_4 - 2000.000000 s_2_4 > -1983.280179
Binary
s_1_1
s_2_1
s_1_2
s_2_2
s_1_3
s_2_3
s_1_4
s_2_4
s_1_5
s_2_5
u_1_1_2
u_2_1_2
u_1_1_3
u_2_1_3
u_1_1_4
u_2_1_4
u_1_2_1
u_2_2_1
u_1_2_3
u_2_2_3
u_1_2_4
u_2_2_4
u_1_3_1
u_2_3_1
u_1_3_2
u_2_3_2
u_1_3_4
u_2_3_4
u_1_4_1
u_2_4_1
u_1_4_2
u_2_4_2
u_1_4_3
u_2_4_3

End
